c Random generated cnf formula, satisfiable: true
p cnf 10 50
-4 5 -3 0
4 -2 7 0
-1 5 -10 0
-1 5 9 0
-9 -4 5 0
8 2 3 0
-10 -6 5 0
-4 -5 7 0
-5 4 -1 0
2 8 10 0
7 6 -10 0
5 -2 -10 0
2 5 -7 0
-8 4 -6 0
7 -1 -4 0
-6 2 4 0
3 -1 5 0
9 6 3 0
7 9 -5 0
5 -8 -4 0
-10 3 4 0
-3 6 -9 0
-10 5 2 0
8 7 2 0
10 -5 -1 0
-7 -6 9 0
-3 2 7 0
-9 -5 -7 0
-8 -5 -6 0
-9 -4 -7 0
-10 -4 9 0
6 -10 -8 0
-9 8 7 0
8 7 6 0
3 2 -4 0
9 -2 1 0
7 -1 2 0
-10 -1 -4 0
-5 -3 8 0
9 -8 3 0
9 -2 -5 0
-6 7 3 0
1 -9 8 0
5 9 7 0
-9 -5 -10 0
-8 -2 -10 0
7 -8 4 0
-2 4 -5 0
4 -3 -1 0
5 -8 -2 0
